Instance Name : r110
Date : 2022-07-21
Solution
Route 1 : 88 62 11 64 63 90 32 10
Route 2 : 52 82 7 19 47 49 36 48
Route 3 : 18 83 8 46 45 17 60 89
Route 4 : 5 84 61 85 93 99 96 6
Route 5 : 95 98 44 16 86 38 14 91 100 92
Route 6 : 94 59 37 97
Route 7 : 2 87 57 15 43 42 13
Route 8 : 53 40 73 74 22 41 58
Route 9 : 21 72 75 56 23 67 39 25 55 4
Route 10 : 26 54 24 80 68
Route 11 : 28 12 76 77 29 79 3 50
Route 12 : 27 69 31 70 30 51 81 34 78 33
Route 13 : 9 35 71 65 66 20 1
